
******************************************************************************
This program contains Ipopt, a library for large-scale nonlinear optimization.
 Ipopt is released as open source code under the Eclipse Public License (EPL).
         For more information visit http://projects.coin-or.org/Ipopt

This version of Ipopt was compiled from source code available at
    https://github.com/IDAES/Ipopt as part of the Institute for the Design of
    Advanced Energy Systems Process Systems Engineering Framework (IDAES PSE
    Framework) Copyright (c) 2018-2019. See https://github.com/IDAES/idaes-pse.

This version of Ipopt was compiled using HSL, a collection of Fortran codes
    for large-scale scientific computation.  All technical papers, sales and
    publicity material resulting from use of the HSL codes within IPOPT must
    contain the following acknowledgement:
        HSL, a collection of Fortran codes for large-scale scientific
        computation. See http://www.hsl.rl.ac.uk.
******************************************************************************

This is Ipopt version 3.13.2, running with linear solver ma27.

Number of nonzeros in equality constraint Jacobian...:     1084
Number of nonzeros in inequality constraint Jacobian.:        0
Number of nonzeros in Lagrangian Hessian.............:     1088

Total number of variables............................:      448
                     variables with only lower bounds:      128
                variables with lower and upper bounds:      256
                     variables with only upper bounds:        0
Total number of equality constraints.................:      446
Total number of inequality constraints...............:        0
        inequality constraints with only lower bounds:        0
   inequality constraints with lower and upper bounds:        0
        inequality constraints with only upper bounds:        0

iter    objective    inf_pr   inf_du lg(mu)  ||d||  lg(rg) alpha_du alpha_pr  ls
   0  0.0000000e+00 3.45e-01 2.93e-14  -1.0 0.00e+00    -  0.00e+00 0.00e+00   0
   1  9.2392974e-03 2.08e-01 3.14e+04  -1.0 3.52e+04    -  5.60e-01 2.20e-01h  1
   2  9.6500109e-03 2.07e-01 3.17e+04  -1.0 4.54e+04    -  7.83e-01 6.84e-03h  1
   3  3.2536028e+00 8.84e-01 2.27e+05  -1.0 1.30e+05    -  8.14e-01 8.80e-01h  1
   4  4.0315554e+00 6.36e-01 1.62e+05  -1.0 4.66e+04    -  4.41e-01 2.82e-01h  1
   5  5.1411895e+00 3.27e-01 7.96e+04  -1.0 3.41e+04    -  3.80e-01 4.89e-01h  1
   6  6.4774129e+00 4.89e-03 3.74e+03  -1.0 1.80e+04    -  9.42e-01 9.90e-01h  1
   7  6.5062656e+00 2.09e-04 3.34e+03  -1.0 2.91e+03    -  8.81e-01 9.90e-01h  1
   8  6.5279615e+00 5.26e-04 1.84e+06  -1.0 1.39e+04    -  3.64e-01 9.90e-01H  1
   9  6.5964588e+00 1.20e-04 1.66e+07  -1.0 1.52e+04    -  9.33e-01 9.90e-01H  1
iter    objective    inf_pr   inf_du lg(mu)  ||d||  lg(rg) alpha_du alpha_pr  ls
  10  6.7183915e+00 6.99e-06 5.29e+05  -1.0 1.11e+04    -  9.90e-01 9.90e-01H  1
  11  6.5691486e+00 1.63e-04 2.01e+10  -2.5 1.89e+04    -  9.97e-01 7.55e-01f  1
  12  6.5222767e+00 1.08e-04 1.01e+09  -2.5 1.42e+04    -  1.00e+00 9.97e-01H  1
In iteration 12, 32 Slacks too small, adjusting variable bounds
  13  6.5129341e+00 1.38e-04 3.38e+11  -2.5 4.79e+03    -  1.00e+00 9.97e-01h  1
  14  6.5117101e+00 5.76e-06 5.48e-02  -2.5 1.17e+03    -  1.00e+00 1.00e+00h  1
  15  6.5062216e+00 1.22e-04 1.44e+10  -8.6 3.44e+03    -  9.97e-01 9.65e-01f  1
  16  6.5059305e+00 2.77e-05 9.65e+04  -8.6 1.52e+03    -  1.00e+00 1.00e+00h  1
  17  6.5059321e+00 2.09e-06 7.63e-03  -8.6 3.82e+02    -  1.00e+00 1.00e+00h  1
  18  6.5059332e+00 1.68e-08 7.82e-05  -8.6 3.33e+01    -  1.00e+00 1.00e+00h  1
  19  6.5059332e+00 1.61e-09 6.77e-09  -8.6 2.81e-01    -  1.00e+00 1.00e+00h  1

Number of Iterations....: 19

                                   (scaled)                 (unscaled)
Objective...............:   6.5059332458854744e+00    6.5059332458854744e+00
Dual infeasibility......:   6.7710315803469894e-09    6.7710315803469894e-09
Constraint violation....:   1.6079124698364922e-09    1.6079124698364922e-09
Complementarity.........:   2.5177454887255975e-09    2.5177454887255975e-09
Overall NLP error.......:   1.6079124698364922e-09    6.7710315803469894e-09


Number of objective function evaluations             = 24
Number of objective gradient evaluations             = 20
Number of equality constraint evaluations            = 24
Number of inequality constraint evaluations          = 0
Number of equality constraint Jacobian evaluations   = 20
Number of inequality constraint Jacobian evaluations = 0
Number of Lagrangian Hessian evaluations             = 19
Total CPU secs in IPOPT (w/o function evaluations)   =      0.027
Total CPU secs in NLP function evaluations           =      0.332

EXIT: Optimal Solution Found.
